\ENCODING=ISO-8859-1
\Problem name: IloCplex

Maximize
 obj1: 0.727272727272727 x1 + 0.136363636363636 x2 + 0.272727272727273 x3
Subject To
 c1: 180 x1 + 60 x2 + 80 x3 + 70 x4 + 50 x5 <= 300
Bounds
      x1 >= 0
      x2 >= 0
      x3 >= 0
      x4 >= 0
      x5 >= 0
Generals
 x1  x2  x3  x4  x5 
End
